NAME: ACTUAL_TOURS/amz0063
TYPE: TOUR
COMMENT: RouteID_06d1eadd-33e1-471c-ac7c-a7691da3fc31
DIMENSION: 107
TOUR_SECTION
65
26
76
61
9
43
100
67
28
29
72
92
94
83
39
13
102
22
98
12
49
60
20
75
53
31
96
106
81
85
18
7
32
51
10
30
63
84
38
15
105
97
69
6
50
21
71
64
44
34
70
95
14
42
52
17
5
58
99
25
54
40
45
16
74
66
3
87
48
4
24
86
93
90
68
55
47
107
80
36
35
56
79
37
62
82
1
91
104
23
59
57
89
73
88
77
11
41
19
27
103
78
101
33
46
8
2
-1
EOF
